param set_len = 30;
param target = 3502128041;
param values := [0] 118977894 [1] 2431944 [2] 71820562 [3] 163700281 [4] 350925742 [5] 359683323 [6] 256947484 [7] 451746162 [8] 120094672 [9] 432169056 [10] 2956658 [11] 505562952 [12] 384515265 [13] 217952181 [14] 326589794 [15] 8107805 [16] 55344968 [17] 424157018 [18] 184951435 [19] 12683004 [20] 360151751 [21] 320575628 [22] 20011338 [23] 314727451 [24] 84963210 [25] 499225442 [26] 398403576 [27] 528844994 [28] 376942153 [29] 474983879 ;
